p cnf 64 205
3 2 0
3 -1 0
-2 1 -3 0
1 3 -4 0
-1 -3 -4 0
1 -3 4 0
-1 3 4 0
5 -1 -6 0
-5 1 -6 0
5 1 6 0
-5 -1 6 0
-7 4 0
-7 6 0
-4 -6 7 0
-7 6 -8 0
7 -6 -8 0
-7 -6 8 0
7 6 8 0
-10 7 0
-10 -9 0
-7 9 10 0
-8 -10 -11 0
8 10 -11 0
-8 10 11 0
8 -10 11 0
-12 13 -14 0
12 -13 -14 0
-12 -13 14 0
12 13 14 0
-14 1 -15 0
14 -1 -15 0
-14 -1 15 0
14 1 15 0
-8 -15 -16 0
8 15 -16 0
-8 15 16 0
8 -15 16 0
19 17 0
19 18 0
-17 -18 -19 0
19 -1 -20 0
-19 1 -20 0
19 1 20 0
-19 -1 20 0
21 -16 0
21 -20 0
16 20 -21 0
23 -1 0
23 -5 0
1 5 -23 0
22 -23 -24 0
-22 23 -24 0
22 23 24 0
-22 -23 24 0
25 24 0
25 -13 0
-24 13 -25 0
27 26 0
27 -19 0
-26 19 -27 0
-27 -23 -28 0
27 23 -28 0
-27 23 28 0
27 -23 28 0
29 -26 0
29 6 0
26 -6 -29 0
30 3 0
30 -29 0
-3 29 -30 0
31 -28 0
31 -30 0
28 30 -31 0
32 -25 0
32 -31 0
25 31 -32 0
-30 -29 -33 0
30 29 -33 0
-30 29 33 0
30 -29 33 0
34 -14 0
34 3 0
14 -3 -34 0
33 34 -35 0
-33 -34 -35 0
33 -34 35 0
-33 34 35 0
37 36 0
37 -2 0
-36 2 -37 0
-38 -35 0
-38 -37 0
35 37 38 0
40 39 0
40 26 0
-39 -26 -40 0
-41 -38 0
-41 -40 0
38 40 41 0
14 42 -43 0
-14 -42 -43 0
14 -42 43 0
-14 42 43 0
44 -19 0
44 5 0
19 -5 -44 0
44 -36 -45 0
-44 36 -45 0
44 36 45 0
-44 -36 45 0
46 -43 0
46 -45 0
43 45 -46 0
47 -41 0
47 46 0
41 -46 -47 0
48 -32 0
48 47 0
32 -47 -48 0
-21 48 -49 0
21 -48 -49 0
-21 -48 49 0
21 48 49 0
-51 -50 0
-51 -15 0
50 15 51 0
-52 -26 0
-52 23 0
26 -23 52 0
53 51 0
53 -52 0
-51 52 -53 0
-54 -22 0
-54 19 0
22 -19 54 0
-54 23 -55 0
54 -23 -55 0
-54 -23 55 0
54 23 55 0
56 -55 0
56 -54 0
55 54 -56 0
57 53 0
57 56 0
-53 -56 -57 0
49 -57 -58 0
-49 57 -58 0
49 57 58 0
-49 -57 58 0
-11 58 -59 0
11 -58 -59 0
-11 -58 59 0
11 58 59 0
-60 42 0
-60 -13 0
-42 13 60 0
-61 -60 0
-61 -1 0
60 1 61 0
-10 -12 -62 0
10 12 -62 0
-10 12 62 0
10 -12 62 0
61 -62 -63 0
-61 62 -63 0
61 62 63 0
-61 -62 63 0
64 -59 0
64 63 0
59 -63 -64 0
4 53 0
30 -55 -43 -47 0
15 -30 -34 -13 -21 0
-48 55 0
41 56 23 -2 0
-13 -29 0
45 -4 -26 -17 -64 0
-48 -30 45 -51 -35 15 0
10 -45 46 57 44 0
-44 47 0
-18 -24 0
-11 -45 -14 15 0
-31 38 43 -2 44 -16 0
12 -57 -59 -41 31 0
-39 4 0
-6 3 0
-33 -32 57 -1 0
-47 -64 -53 60 0
37 -47 0
-39 57 -43 0
21 -26 -54 -38 36 0
2 -47 -62 -54 -30 0
18 21 0
-42 37 0
27 12 -22 4 -34 15 0
24 18 4 -6 49 0
22 -56 -7 0
22 -40 55 -26 0
19 58 24 64 0
-20 13 28 42 0
2 36 -62 -16 0
-17 -32 -60 -31 39 7 0
-32 -31 1 -6 0
44 -5 35 -37 2 0
64 0
